Route #1: 0 126 136 71 49 51 73 52 20 57 139 82 55 83 85 65 89 54 7 36 84 0
Route #2: 0 118 97 120 142 125 21 132 23 14 37 122 22 131 42 29 63 106 66 50 0
Route #3: 0 4 124 116 93 40 88 95 123 47 133 28 56 91 35 64 61 45 12 19 32 16 109 0
Route #4: 0 90 44 18 74 11 100 81 96 62 104 46 87 79 111 1 8 114 5 59 70 0
Route #5: 0 48 67 117 134 38 103 112 26 75 94 129 34 121 98 31 6 102 53 110 43 72 60 107 0
Route #6: 0 86 135 58 101 30 138 105 76 3 113 10 92 108 24 27 15 141 140 69 39 80 119 77 33 137 0
Route #7: 0 13 130 115 17 78 2 41 99 9 25 128 127 68 0
Cost 21837:
